SAT
14 99 -68 -77 54 41 56 26 28 -100 65 -49 91 84 96 81 -87 -46 -89 86 -15 -94 20 -40 -30 -78 -69 -10 -8 -18 -22 67 4 -75 37 38 -31 -76 -36 -21 -57 62 11 85 -82 -88 -95 19 -9 32 51 66 -83 52 92 -16 -74 48 6 -33 -63 42 -44 -34 64 23 -80 -55 47 17 1 43 93 35 50 -97 -72 -70 73 -98 7 12 -90 53 25 3 -79 -24 -61 -60 -27 -39 -71 -5 58 59 45 2 29 -13 0
